fondparser/try.cnf
p cnf 197 1185
8 0
2 0
1 0
5 0
10 0
20 0
14 0
13 0
17 0
22 0
3 0
-11 0
23 0
-15 0
-7 0
-9 0
-4 0
-12 0
-6 0
-19 0
-21 0
-16 0
-24 0
-18 0
-12 0
-24 0
-121 -2 0
-121 8 0
-122 8 0
-122 2 0
-122 -26 0
-123 8 0
-123 11 0
-123 -2 0
-123 28 0
-123 -35 0
-124 10 0
-124 7 0
-124 -31 0
-124 32 0
-125 7 0
-125 3 0
-125 -1 0
-125 28 0
-125 -27 0
-126 4 0
-126 108 0
-126 36 0
-127 5 0
-127 8 0
-127 -32 0
-127 31 0
-128 -1 0
-128 7 0
-129 7 0
-129 1 0
-129 -25 0
-130 -14 0
-130 20 0
-131 20 0
-131 14 0
-131 -38 0
-132 20 0
-132 23 0
-132 -14 0
-132 40 0
-132 -47 0
-133 22 0
-133 19 0
-133 -43 0
-133 44 0
-134 19 0
-134 15 0
-134 -13 0
-134 40 0
-134 -39 0
-135 16 0
-135 120 0
-135 48 0
-136 17 0
-136 20 0
-136 -44 0
-136 43 0
-137 -13 0
-137 19 0
-138 19 0
-138 13 0
-138 -37 0
-139 -26 0
-139 32 0
-140 32 0
-140 26 0
-140 -50 0
-141 32 0
-141 35 0
-141 -26 0
-141 52 0
-141 -59 0
-142 34 0
-142 31 0
-142 -55 0
-142 56 0
-143 31 0
-143 27 0
-143 -25 0
-143 52 0
-143 -51 0
-144 28 0
-144 108 0
-144 60 0
-145 29 0
-145 32 0
-145 -56 0
-145 55 0
-146 -25 0
-146 31 0
-147 31 0
-147 25 0
-147 -49 0
-148 -38 0
-148 44 0
-149 44 0
-149 38 0
-149 -62 0
-150 44 0
-150 47 0
-150 -38 0
-150 64 0
-150 -71 0
-151 46 0
-151 43 0
-151 -67 0
-151 68 0
-152 43 0
-152 39 0
-152 -37 0
-152 64 0
-152 -63 0
-153 40 0
-153 120 0
-153 72 0
-154 41 0
-154 44 0
-154 -68 0
-154 67 0
-155 -37 0
-155 43 0
-156 43 0
-156 37 0
-156 -61 0
-157 -50 0
-157 56 0
-158 56 0
-158 50 0
-158 -74 0
-159 56 0
-159 59 0
-159 -50 0
-159 76 0
-159 -83 0
-160 58 0
-160 55 0
-160 -79 0
-160 80 0
-161 55 0
-161 51 0
-161 -49 0
-161 76 0
-161 -75 0
-162 52 0
-162 108 0
-162 84 0
-163 53 0
-163 56 0
-163 -80 0
-163 79 0
-164 -49 0
-164 55 0
-165 55 0
-165 49 0
-165 -73 0
-166 -62 0
-166 68 0
-167 68 0
-167 62 0
-167 -86 0
-168 68 0
-168 71 0
-168 -62 0
-168 88 0
-168 -95 0
-169 70 0
-169 67 0
-169 -91 0
-169 92 0
-170 67 0
-170 63 0
-170 -61 0
-170 88 0
-170 -87 0
-171 64 0
-171 120 0
-171 96 0
-172 65 0
-172 68 0
-172 -92 0
-172 91 0
-173 -61 0
-173 67 0
-174 67 0
-174 61 0
-174 -85 0
-175 -74 0
-175 80 0
-176 80 0
-176 74 0
-176 -98 0
-177 80 0
-177 83 0
-177 -74 0
-177 100 0
-177 -107 0
-178 82 0
-178 79 0
-178 -103 0
-178 104 0
-179 79 0
-179 75 0
-179 -73 0
-179 100 0
-179 -99 0
-180 76 0
-180 108 0
-180 108 0
-181 77 0
-181 80 0
-181 -104 0
-181 103 0
-182 -73 0
-182 79 0
-183 79 0
-183 73 0
-183 -97 0
-184 -86 0
-184 92 0
-185 92 0
-185 86 0
-185 -110 0
-186 92 0
-186 95 0
-186 -86 0
-186 112 0
-186 -119 0
-187 94 0
-187 91 0
-187 -115 0
-187 116 0
-188 91 0
-188 87 0
-188 -85 0
-188 112 0
-188 -111 0
-189 88 0
-189 120 0
-189 120 0
-190 89 0
-190 92 0
-190 -116 0
-190 115 0
-191 -85 0
-191 91 0
-192 91 0
-192 85 0
-192 -109 0
-193 0
-193 194 0
-121 -11 193 23 194 0
-121 -23 193 11 194 0
-130 -11 193 23 194 0
-130 -23 193 11 194 0
-121 -11 -23 193 -194 0
-121 193 23 11 -194 0
-130 -11 -23 193 -194 0
-130 193 23 11 -194 0
-128 -3 193 15 194 0
-128 -15 193 3 194 0
-137 -3 193 15 194 0
-137 -15 193 3 194 0
-128 -3 -15 193 -194 0
-128 193 15 3 -194 0
-137 -3 -15 193 -194 0
-137 193 15 3 -194 0
-194 195 0
-139 -35 194 47 195 0
-139 -47 194 35 195 0
-148 -35 194 47 195 0
-148 -47 194 35 195 0
-139 -35 -47 194 -195 0
-139 194 47 35 -195 0
-148 -35 -47 194 -195 0
-148 194 47 35 -195 0
-146 -27 194 39 195 0
-146 -39 194 27 195 0
-155 -27 194 39 195 0
-155 -39 194 27 195 0
-146 -27 -39 194 -195 0
-146 194 39 27 -195 0
-155 -27 -39 194 -195 0
-155 194 39 27 -195 0
-195 196 0
-157 -59 195 71 196 0
-157 -71 195 59 196 0
-166 -59 195 71 196 0
-166 -71 195 59 196 0
-157 -59 -71 195 -196 0
-157 195 71 59 -196 0
-166 -59 -71 195 -196 0
-166 195 71 59 -196 0
-164 -51 195 63 196 0
-164 -63 195 51 196 0
-173 -51 195 63 196 0
-173 -63 195 51 196 0
-164 -51 -63 195 -196 0
-164 195 63 51 -196 0
-173 -51 -63 195 -196 0
-173 195 63 51 -196 0
-196 197 0
-175 -83 196 95 197 0
-175 -95 196 83 197 0
-184 -83 196 95 197 0
-184 -95 196 83 197 0
-175 -83 -95 196 -197 0
-175 196 95 83 -197 0
-184 -83 -95 196 -197 0
-184 196 95 83 -197 0
-182 -75 196 87 197 0
-182 -87 196 75 197 0
-191 -75 196 87 197 0
-191 -87 196 75 197 0
-182 -75 -87 196 -197 0
-182 196 87 75 -197 0
-191 -75 -87 196 -197 0
-191 196 87 75 -197 0
-25 1 0
-1 129 25 0
-26 2 0
-2 122 26 0
-27 3 0
-3 125 27 0
4 125 123 -28 0
-4 28 0
-29 5 0
-5 29 0
-30 6 0
-6 30 0
7 127 -31 0
-7 124 31 0
8 124 -32 0
-8 127 32 0
-33 9 0
-9 33 0
-34 10 0
-10 34 0
-35 11 0
-11 123 35 0
12 126 -36 0
-12 36 0
-49 25 0
-25 147 49 0
-50 26 0
-26 140 50 0
-51 27 0
-27 143 51 0
28 143 141 -52 0
-28 52 0
-53 29 0
-29 53 0
-54 30 0
-30 54 0
31 145 -55 0
-31 142 55 0
32 142 -56 0
-32 145 56 0
-57 33 0
-33 57 0
-58 34 0
-34 58 0
-59 35 0
-35 141 59 0
36 144 -60 0
-36 60 0
-73 49 0
-49 165 73 0
-74 50 0
-50 158 74 0
-75 51 0
-51 161 75 0
52 159 161 -76 0
-52 76 0
-77 53 0
-53 77 0
-78 54 0
-54 78 0
55 163 -79 0
-55 160 79 0
56 160 -80 0
-56 163 80 0
-81 57 0
-57 81 0
-82 58 0
-58 82 0
-83 59 0
-59 159 83 0
60 162 -84 0
-60 84 0
-97 73 0
-73 183 97 0
-98 74 0
-74 176 98 0
-99 75 0
-75 179 99 0
76 179 177 -100 0
-76 100 0
-101 77 0
-77 101 0
-102 78 0
-78 102 0
79 181 -103 0
-79 178 103 0
80 178 -104 0
-80 181 104 0
-105 81 0
-81 105 0
-106 82 0
-82 106 0
-107 83 0
-83 177 107 0
84 180 180 144 162 126 -108 0
-84 108 0
-37 13 0
-13 138 37 0
-38 14 0
-14 131 38 0
-39 15 0
-15 134 39 0
16 132 134 -40 0
-16 40 0
-41 17 0
-17 41 0
-42 18 0
-18 42 0
19 136 -43 0
-19 133 43 0
20 133 -44 0
-20 136 44 0
-45 21 0
-21 45 0
-46 22 0
-22 46 0
-47 23 0
-23 132 47 0
24 135 -48 0
-24 48 0
-61 37 0
-37 156 61 0
-62 38 0
-38 149 62 0
-63 39 0
-39 152 63 0
40 152 150 -64 0
-40 64 0
-65 41 0
-41 65 0
-66 42 0
-42 66 0
43 154 -67 0
-43 151 67 0
44 151 -68 0
-44 154 68 0
-69 45 0
-45 69 0
-70 46 0
-46 70 0
-71 47 0
-47 150 71 0
48 153 -72 0
-48 72 0
-85 61 0
-61 174 85 0
-86 62 0
-62 167 86 0
-87 63 0
-63 170 87 0
64 168 170 -88 0
-64 88 0
-89 65 0
-65 89 0
-90 66 0
-66 90 0
67 172 -91 0
-67 169 91 0
68 169 -92 0
-68 172 92 0
-93 69 0
-69 93 0
-94 70 0
-70 94 0
-95 71 0
-71 168 95 0
72 171 -96 0
-72 96 0
-109 85 0
-85 192 109 0
-110 86 0
-86 185 110 0
-111 87 0
-87 188 111 0
88 188 186 -112 0
-88 112 0
-113 89 0
-89 113 0
-114 90 0
-90 114 0
91 190 -115 0
-91 187 115 0
92 187 -116 0
-92 190 116 0
-117 93 0
-93 117 0
-118 94 0
-94 118 0
-119 95 0
-95 186 119 0
96 153 189 189 135 171 -120 0
-96 120 0
-121 -122 0
-130 -131 0
-121 -131 193 0
-130 -122 193 0
-139 -140 0
-148 -149 0
-139 -149 194 0
-148 -140 194 0
-157 -158 0
-166 -167 0
-157 -167 195 0
-166 -158 195 0
-175 -176 0
-184 -185 0
-175 -185 196 0
-184 -176 196 0
-121 -123 0
-130 -132 0
-121 -132 193 0
-130 -123 193 0
-139 -141 0
-148 -150 0
-139 -150 194 0
-148 -141 194 0
-157 -159 0
-166 -168 0
-157 -168 195 0
-166 -159 195 0
-175 -177 0
-184 -186 0
-175 -186 196 0
-184 -177 196 0
-121 -124 0
-130 -133 0
-121 -133 193 0
-130 -124 193 0
-139 -142 0
-148 -151 0
-139 -151 194 0
-148 -142 194 0
-157 -160 0
-166 -169 0
-157 -169 195 0
-166 -160 195 0
-175 -178 0
-184 -187 0
-175 -187 196 0
-184 -178 196 0
-121 -125 0
-130 -134 0
-121 -134 193 0
-130 -125 193 0
-139 -143 0
-148 -152 0
-139 -152 194 0
-148 -143 194 0
-157 -161 0
-166 -170 0
-157 -170 195 0
-166 -161 195 0
-175 -179 0
-184 -188 0
-175 -188 196 0
-184 -179 196 0
-121 -126 0
-130 -135 0
-121 -135 193 0
-130 -126 193 0
-139 -144 0
-148 -153 0
-139 -153 194 0
-148 -144 194 0
-157 -162 0
-166 -171 0
-157 -171 195 0
-166 -162 195 0
-175 -180 0
-184 -189 0
-175 -189 196 0
-184 -180 196 0
-121 -127 0
-130 -136 0
-121 -136 193 0
-130 -127 193 0
-139 -145 0
-148 -154 0
-139 -154 194 0
-148 -145 194 0
-157 -163 0
-166 -172 0
-157 -172 195 0
-166 -163 195 0
-175 -181 0
-184 -190 0
-175 -190 196 0
-184 -181 196 0
-121 -128 0
-130 -137 0
-121 -137 193 0
-130 -128 193 0
-139 -146 0
-148 -155 0
-139 -155 194 0
-148 -146 194 0
-157 -164 0
-166 -173 0
-157 -173 195 0
-166 -164 195 0
-175 -182 0
-184 -191 0
-175 -191 196 0
-184 -182 196 0
-121 -129 0
-130 -138 0
-121 -138 193 0
-130 -129 193 0
-139 -147 0
-148 -156 0
-139 -156 194 0
-148 -147 194 0
-157 -165 0
-166 -174 0
-157 -174 195 0
-166 -165 195 0
-175 -183 0
-184 -192 0
-175 -192 196 0
-184 -183 196 0
-122 -123 0
-131 -132 0
-122 -132 193 0
-131 -123 193 0
-140 -141 0
-149 -150 0
-140 -150 194 0
-149 -141 194 0
-158 -159 0
-167 -168 0
-158 -168 195 0
-167 -159 195 0
-176 -177 0
-185 -186 0
-176 -186 196 0
-185 -177 196 0
-122 -124 0
-131 -133 0
-122 -133 193 0
-131 -124 193 0
-140 -142 0
-149 -151 0
-140 -151 194 0
-149 -142 194 0
-158 -160 0
-167 -169 0
-158 -169 195 0
-167 -160 195 0
-176 -178 0
-185 -187 0
-176 -187 196 0
-185 -178 196 0
-122 -125 0
-131 -134 0
-122 -134 193 0
-131 -125 193 0
-140 -143 0
-149 -152 0
-140 -152 194 0
-149 -143 194 0
-158 -161 0
-167 -170 0
-158 -170 195 0
-167 -161 195 0
-176 -179 0
-185 -188 0
-176 -188 196 0
-185 -179 196 0
-122 -126 0
-131 -135 0
-122 -135 193 0
-131 -126 193 0
-140 -144 0
-149 -153 0
-140 -153 194 0
-149 -144 194 0
-158 -162 0
-167 -171 0
-158 -171 195 0
-167 -162 195 0
-176 -180 0
-185 -189 0
-176 -189 196 0
-185 -180 196 0
-122 -127 0
-131 -136 0
-122 -136 193 0
-131 -127 193 0
-140 -145 0
-149 -154 0
-140 -154 194 0
-149 -145 194 0
-158 -163 0
-167 -172 0
-158 -172 195 0
-167 -163 195 0
-176 -181 0
-185 -190 0
-176 -190 196 0
-185 -181 196 0
-122 -128 0
-131 -137 0
-122 -137 193 0
-131 -128 193 0
-140 -146 0
-149 -155 0
-140 -155 194 0
-149 -146 194 0
-158 -164 0
-167 -173 0
-158 -173 195 0
-167 -164 195 0
-176 -182 0
-185 -191 0
-176 -191 196 0
-185 -182 196 0
-122 -129 0
-131 -138 0
-122 -138 193 0
-131 -129 193 0
-140 -147 0
-149 -156 0
-140 -156 194 0
-149 -147 194 0
-158 -165 0
-167 -174 0
-158 -174 195 0
-167 -165 195 0
-176 -183 0
-185 -192 0
-176 -192 196 0
-185 -183 196 0
-123 -124 0
-132 -133 0
-123 -133 193 0
-132 -124 193 0
-141 -142 0
-150 -151 0
-141 -151 194 0
-150 -142 194 0
-159 -160 0
-168 -169 0
-159 -169 195 0
-168 -160 195 0
-177 -178 0
-186 -187 0
-177 -187 196 0
-186 -178 196 0
-123 -125 0
-132 -134 0
-123 -134 193 0
-132 -125 193 0
-141 -143 0
-150 -152 0
-141 -152 194 0
-150 -143 194 0
-159 -161 0
-168 -170 0
-159 -170 195 0
-168 -161 195 0
-177 -179 0
-186 -188 0
-177 -188 196 0
-186 -179 196 0
-123 -126 0
-132 -135 0
-123 -135 193 0
-132 -126 193 0
-141 -144 0
-150 -153 0
-141 -153 194 0
-150 -144 194 0
-159 -162 0
-168 -171 0
-159 -171 195 0
-168 -162 195 0
-177 -180 0
-186 -189 0
-177 -189 196 0
-186 -180 196 0
-123 -127 0
-132 -136 0
-123 -136 193 0
-132 -127 193 0
-141 -145 0
-150 -154 0
-141 -154 194 0
-150 -145 194 0
-159 -163 0
-168 -172 0
-159 -172 195 0
-168 -163 195 0
-177 -181 0
-186 -190 0
-177 -190 196 0
-186 -181 196 0
-123 -128 0
-132 -137 0
-123 -137 193 0
-132 -128 193 0
-141 -146 0
-150 -155 0
-141 -155 194 0
-150 -146 194 0
-159 -164 0
-168 -173 0
-159 -173 195 0
-168 -164 195 0
-177 -182 0
-186 -191 0
-177 -191 196 0
-186 -182 196 0
-123 -129 0
-132 -138 0
-123 -138 193 0
-132 -129 193 0
-141 -147 0
-150 -156 0
-141 -156 194 0
-150 -147 194 0
-159 -165 0
-168 -174 0
-159 -174 195 0
-168 -165 195 0
-177 -183 0
-186 -192 0
-177 -192 196 0
-186 -183 196 0
-124 -125 0
-133 -134 0
-124 -134 193 0
-133 -125 193 0
-142 -143 0
-151 -152 0
-142 -152 194 0
-151 -143 194 0
-160 -161 0
-169 -170 0
-160 -170 195 0
-169 -161 195 0
-178 -179 0
-187 -188 0
-178 -188 196 0
-187 -179 196 0
-124 -126 0
-133 -135 0
-124 -135 193 0
-133 -126 193 0
-142 -144 0
-151 -153 0
-142 -153 194 0
-151 -144 194 0
-160 -162 0
-169 -171 0
-160 -171 195 0
-169 -162 195 0
-178 -180 0
-187 -189 0
-178 -189 196 0
-187 -180 196 0
-124 -127 0
-133 -136 0
-124 -136 193 0
-133 -127 193 0
-142 -145 0
-151 -154 0
-142 -154 194 0
-151 -145 194 0
-160 -163 0
-169 -172 0
-160 -172 195 0
-169 -163 195 0
-178 -181 0
-187 -190 0
-178 -190 196 0
-187 -181 196 0
-124 -128 0
-133 -137 0
-124 -137 193 0
-133 -128 193 0
-142 -146 0
-151 -155 0
-142 -155 194 0
-151 -146 194 0
-160 -164 0
-169 -173 0
-160 -173 195 0
-169 -164 195 0
-178 -182 0
-187 -191 0
-178 -191 196 0
-187 -182 196 0
-124 -129 0
-133 -138 0
-124 -138 193 0
-133 -129 193 0
-142 -147 0
-151 -156 0
-142 -156 194 0
-151 -147 194 0
-160 -165 0
-169 -174 0
-160 -174 195 0
-169 -165 195 0
-178 -183 0
-187 -192 0
-178 -192 196 0
-187 -183 196 0
-125 -126 0
-134 -135 0
-125 -135 193 0
-134 -126 193 0
-143 -144 0
-152 -153 0
-143 -153 194 0
-152 -144 194 0
-161 -162 0
-170 -171 0
-161 -171 195 0
-170 -162 195 0
-179 -180 0
-188 -189 0
-179 -189 196 0
-188 -180 196 0
-125 -127 0
-134 -136 0
-125 -136 193 0
-134 -127 193 0
-143 -145 0
-152 -154 0
-143 -154 194 0
-152 -145 194 0
-161 -163 0
-170 -172 0
-161 -172 195 0
-170 -163 195 0
-179 -181 0
-188 -190 0
-179 -190 196 0
-188 -181 196 0
-125 -128 0
-134 -137 0
-125 -137 193 0
-134 -128 193 0
-143 -146 0
-152 -155 0
-143 -155 194 0
-152 -146 194 0
-161 -164 0
-170 -173 0
-161 -173 195 0
-170 -164 195 0
-179 -182 0
-188 -191 0
-179 -191 196 0
-188 -182 196 0
-125 -129 0
-134 -138 0
-125 -138 193 0
-134 -129 193 0
-143 -147 0
-152 -156 0
-143 -156 194 0
-152 -147 194 0
-161 -165 0
-170 -174 0
-161 -174 195 0
-170 -165 195 0
-179 -183 0
-188 -192 0
-179 -192 196 0
-188 -183 196 0
-126 -127 0
-135 -136 0
-126 -136 193 0
-135 -127 193 0
-144 -145 0
-153 -154 0
-144 -154 194 0
-153 -145 194 0
-162 -163 0
-171 -172 0
-162 -172 195 0
-171 -163 195 0
-180 -181 0
-189 -190 0
-180 -190 196 0
-189 -181 196 0
-126 -128 0
-135 -137 0
-126 -137 193 0
-135 -128 193 0
-144 -146 0
-153 -155 0
-144 -155 194 0
-153 -146 194 0
-162 -164 0
-171 -173 0
-162 -173 195 0
-171 -164 195 0
-180 -182 0
-189 -191 0
-180 -191 196 0
-189 -182 196 0
-126 -129 0
-135 -138 0
-126 -138 193 0
-135 -129 193 0
-144 -147 0
-153 -156 0
-144 -156 194 0
-153 -147 194 0
-162 -165 0
-171 -174 0
-162 -174 195 0
-171 -165 195 0
-180 -183 0
-189 -192 0
-180 -192 196 0
-189 -183 196 0
-127 -128 0
-136 -137 0
-127 -137 193 0
-136 -128 193 0
-145 -146 0
-154 -155 0
-145 -155 194 0
-154 -146 194 0
-163 -164 0
-172 -173 0
-163 -173 195 0
-172 -164 195 0
-181 -182 0
-190 -191 0
-181 -191 196 0
-190 -182 196 0
-127 -129 0
-136 -138 0
-127 -138 193 0
-136 -129 193 0
-145 -147 0
-154 -156 0
-145 -156 194 0
-154 -147 194 0
-163 -165 0
-172 -174 0
-163 -174 195 0
-172 -165 195 0
-181 -183 0
-190 -192 0
-181 -192 196 0
-190 -183 196 0
-128 -129 0
-137 -138 0
-128 -138 193 0
-137 -129 193 0
-146 -147 0
-155 -156 0
-146 -156 194 0
-155 -147 194 0
-164 -165 0
-173 -174 0
-164 -174 195 0
-173 -165 195 0
-182 -183 0
-191 -192 0
-182 -192 196 0
-191 -183 196 0
-121 193 130 0
-130 193 121 0
-139 194 148 0
-148 194 139 0
-157 195 166 0
-166 195 157 0
-175 196 184 0
-184 196 175 0
-122 193 131 0
-131 193 122 0
-140 194 149 0
-149 194 140 0
-158 195 167 0
-167 195 158 0
-176 196 185 0
-185 196 176 0
-123 193 132 0
-132 193 123 0
-141 194 150 0
-150 194 141 0
-159 195 168 0
-168 195 159 0
-177 196 186 0
-186 196 177 0
-124 193 133 0
-133 193 124 0
-142 194 151 0
-151 194 142 0
-160 195 169 0
-169 195 160 0
-178 196 187 0
-187 196 178 0
-125 193 134 0
-134 193 125 0
-143 194 152 0
-152 194 143 0
-161 195 170 0
-170 195 161 0
-179 196 188 0
-188 196 179 0
-126 193 135 0
-135 193 126 0
-144 194 153 0
-153 194 144 0
-162 195 171 0
-171 195 162 0
-180 196 189 0
-189 196 180 0
-127 193 136 0
-136 193 127 0
-145 194 154 0
-154 194 145 0
-163 195 172 0
-172 195 163 0
-181 196 190 0
-190 196 181 0
-128 193 137 0
-137 193 128 0
-146 194 155 0
-155 194 146 0
-164 195 173 0
-173 195 164 0
-182 196 191 0
-191 196 182 0
-129 193 138 0
-138 193 129 0
-147 194 156 0
-156 194 147 0
-165 195 174 0
-174 195 165 0
-183 196 192 0
-192 196 183 0
108 0
120 0
